y=[9, 4, 23, 6, 9, 23, 3, 16, 12, 0, 12, 8, 0, 6, 7, 3, 5, 0, 0, 18, 12, 4];
heights = [3, 4, 3, 3, 3, 3, 3, 10, 11, 3, 14, 15, 16, 17, 19, 4, 4, 5, 4,8, 11, 14];
widths = [3, 3, 5, 6, 7, 8, 9, 3, 3, 12, 3, 3, 3, 3, 3, 3, 4, 4, 7, 4, 4, 4];
makespan = 26;
n=22;
w=26;  